#psi4
#
memory 32 gb

molecule  {
0 1
  C        2.0083120    -0.3372920     0.0000040
  H        3.1030340    -0.4288200    -0.0000030
  O        1.2864570    -1.3299810     0.0000000
  N        1.5810970     0.9343630     0.0000010
  H        0.5827550     1.1459700     0.0000010
  H        2.2521680     1.6786790    -0.0000030
--
0 1
  C       -2.0083120     0.3372920     0.0000010
  H       -3.1030340     0.4288200    -0.0000010
  O       -1.2864570     1.3299810     0.0000000
  N       -1.5810970    -0.9343630     0.0000000
  H       -0.5827550    -1.1459700     0.0000000
  H       -2.2521680    -1.6786790    -0.0000010
units angstrom
no_reorient  #important for SAPT in psi4, default
symmetry c1  #important for SAPT in psi4, default
}

set {
basis aug-cc-pVDZ
scf_type DF
freeze_core True
}
energy('sapt2+')
