#psi4
#
memory 32 gb

molecule  {
0 1
  C       -1.9644470     0.1609890    -0.0000020
  H       -3.0589320     0.1627090    -0.0000040
  O       -1.3160380     1.1929960    -0.0000020
  O       -1.4968300    -1.0660630     0.0000020
  H       -0.4778920    -1.0649310     0.0000090
--
0 1
  C        1.8629159    -0.1775729    -0.0000030
  H        2.9447319    -0.2997979    -0.0000050
  N        1.0451249    -1.1749398    -0.0000010
  H        1.5557199    -2.0484449    -0.0000010
  N        1.4480659     1.0992512     0.0000020
  H        0.4520489     1.2977842     0.0000010
  H        2.1149859     1.8439272     0.0000040
units angstrom
no_reorient  #important for SAPT in psi4, default
symmetry c1  #important for SAPT in psi4, default
}

set {
basis aug-cc-pVDZ
scf_type DF
freeze_core True
}
energy('sapt2+')
