#psi4
#
memory 32 gb

molecule  {
0 1
  O        3.6417540     0.2907420     0.0000970
  C        3.1452410    -0.8178420    -0.0000810
  N        3.9152070    -1.9745340     0.0001010
  C        3.3889340    -3.2359820     0.0000920
  C        2.0569540    -3.4445590    -0.0000320
  C        1.1525990    -2.3081400    -0.0002060
  N        1.7888040    -1.0675620    -0.0001450
  O       -0.0695520    -2.3892320    -0.0001960
  H        1.6409750    -4.4370170     0.0000140
  H        4.9097050    -1.8221610     0.0002390
  H        1.1852000    -0.2384930    -0.0001480
  H        4.1059790    -4.0435990     0.0002290
--
0 1
  O        0.2261367     1.1591605    -0.0002118
  C       -0.9992543     1.2070355    -0.0001938
  N       -1.6404043     2.4459865    -0.0000278
  C       -2.9972123     2.7083655     0.0001802
  N       -3.7609753     1.5555415     0.0001302
  C       -3.2295313     0.2919625     0.0000141
  C       -1.8984854     0.0725855    -0.0000869
  O       -3.4728893     3.8260375     0.0001432
  H       -1.4776163    -0.9207855    -0.0001308
  H       -4.7565983     1.7024445     0.0001822
  H       -1.0406533     3.2599955    -0.0000779
  H       -3.9479434    -0.5141645     0.0000322
units angstrom
no_reorient  #important for SAPT in psi4, default
symmetry c1  #important for SAPT in psi4, default
}

set {
basis aug-cc-pVDZ
scf_type DF
freeze_core True
}
energy('sapt2+')
