#psi4
#
memory 32 gb

molecule  {
0 1
  O        3.6417540     0.2907420     0.0000970
  C        3.1452410    -0.8178420    -0.0000810
  N        3.9152070    -1.9745340     0.0001010
  C        3.3889340    -3.2359820     0.0000920
  C        2.0569540    -3.4445590    -0.0000320
  C        1.1525990    -2.3081400    -0.0002060
  N        1.7888040    -1.0675620    -0.0001450
  O       -0.0695520    -2.3892320    -0.0001960
  H        1.6409750    -4.4370170     0.0000140
  H        4.9097050    -1.8221610     0.0002390
  H        1.1852000    -0.2384930    -0.0001480
  H        4.1059790    -4.0435990     0.0002290
--
0 1
  O        0.3797983     1.0366520    -0.0002137
  C       -0.8455927     1.0845270    -0.0001957
  N       -1.4867427     2.3234780    -0.0000297
  C       -2.8435507     2.5858570     0.0001783
  N       -3.6073137     1.4330330     0.0001283
  C       -3.0758697     0.1694540     0.0000123
  C       -1.7448237    -0.0499230    -0.0000887
  O       -3.3192277     3.7035290     0.0001413
  H       -1.3239547    -1.0432940    -0.0001327
  H       -4.6029367     1.5799360     0.0001803
  H       -0.8869917     3.1374870    -0.0000797
  H       -3.7942817    -0.6366730     0.0000303
units angstrom
no_reorient  #important for SAPT in psi4, default
symmetry c1  #important for SAPT in psi4, default
}

set {
basis aug-cc-pVDZ
scf_type DF
freeze_core True
}
energy('sapt2+')
