#psi4
#
memory 32 gb

molecule  {
0 1
  O        3.6417540     0.2907420     0.0000970
  C        3.1452410    -0.8178420    -0.0000810
  N        3.9152070    -1.9745340     0.0001010
  C        3.3889340    -3.2359820     0.0000920
  C        2.0569540    -3.4445590    -0.0000320
  C        1.1525990    -2.3081400    -0.0002060
  N        1.7888040    -1.0675620    -0.0001450
  O       -0.0695520    -2.3892320    -0.0001960
  H        1.6409750    -4.4370170     0.0000140
  H        4.9097050    -1.8221610     0.0002390
  H        1.1852000    -0.2384930    -0.0001480
  H        4.1059790    -4.0435990     0.0002290
--
0 1
  O       -0.2348483     1.5266860    -0.0002063
  C       -1.4602393     1.5745610    -0.0001883
  N       -2.1013893     2.8135120    -0.0000223
  C       -3.4581973     3.0758910     0.0001857
  N       -4.2219603     1.9230670     0.0001357
  C       -3.6905163     0.6594880     0.0000197
  C       -2.3594703     0.4401110    -0.0000813
  O       -3.9338743     4.1935630     0.0001487
  H       -1.9386013    -0.5532600    -0.0001253
  H       -5.2175833     2.0699700     0.0001877
  H       -1.5016383     3.6275210    -0.0000723
  H       -4.4089283    -0.1466390     0.0000377
units angstrom
no_reorient  #important for SAPT in psi4, default
symmetry c1  #important for SAPT in psi4, default
}

set {
basis aug-cc-pVDZ
scf_type DF
freeze_core True
}
energy('sapt2+')
