#psi4
#
memory 32 gb

molecule  {
0 1
  O        3.6417540     0.2907420     0.0000970
  C        3.1452410    -0.8178420    -0.0000810
  N        3.9152070    -1.9745340     0.0001010
  C        3.3889340    -3.2359820     0.0000920
  C        2.0569540    -3.4445590    -0.0000320
  C        1.1525990    -2.3081400    -0.0002060
  N        1.7888040    -1.0675620    -0.0001450
  O       -0.0695520    -2.3892320    -0.0001960
  H        1.6409750    -4.4370170     0.0000140
  H        4.9097050    -1.8221610     0.0002390
  H        1.1852000    -0.2384930    -0.0001480
  H        4.1059790    -4.0435990     0.0002290
--
0 1
  O        0.0724750     1.2816690    -0.0002100
  C       -1.1529160     1.3295440    -0.0001920
  N       -1.7940660     2.5684950    -0.0000260
  C       -3.1508740     2.8308740     0.0001820
  N       -3.9146370     1.6780500     0.0001320
  C       -3.3831930     0.4144710     0.0000160
  C       -2.0521470     0.1950940    -0.0000850
  O       -3.6265510     3.9485460     0.0001450
  H       -1.6312780    -0.7982770    -0.0001290
  H       -4.9102600     1.8249530     0.0001840
  H       -1.1943150     3.3825040    -0.0000760
  H       -4.1016050    -0.3916560     0.0000340
units angstrom
no_reorient  #important for SAPT in psi4, default
symmetry c1  #important for SAPT in psi4, default
}

set {
basis aug-cc-pVTZ
scf_type DF
freeze_core True
}
energy('sapt2+')
