#psi4
#
memory 32 gb

molecule  {
0 1
  O        3.6417540     0.2907420     0.0000970
  C        3.1452410    -0.8178420    -0.0000810
  N        3.9152070    -1.9745340     0.0001010
  C        3.3889340    -3.2359820     0.0000920
  C        2.0569540    -3.4445590    -0.0000320
  C        1.1525990    -2.3081400    -0.0002060
  N        1.7888040    -1.0675620    -0.0001450
  O       -0.0695520    -2.3892320    -0.0001960
  H        1.6409750    -4.4370170     0.0000140
  H        4.9097050    -1.8221610     0.0002390
  H        1.1852000    -0.2384930    -0.0001480
  H        4.1059790    -4.0435990     0.0002290
--
0 1
  O       -0.0811867     1.4041775    -0.0002082
  C       -1.3065777     1.4520525    -0.0001902
  N       -1.9477277     2.6910035    -0.0000241
  C       -3.3045357     2.9533825     0.0001838
  N       -4.0682987     1.8005585     0.0001339
  C       -3.5368546     0.5369795     0.0000179
  C       -2.2058087     0.3176025    -0.0000832
  O       -3.7802127     4.0710545     0.0001468
  H       -1.7849397    -0.6757685    -0.0001272
  H       -5.0639217     1.9474615     0.0001858
  H       -1.3479767     3.5050125    -0.0000741
  H       -4.2552667    -0.2691475     0.0000358
units angstrom
no_reorient  #important for SAPT in psi4, default
symmetry c1  #important for SAPT in psi4, default
}

set {
basis aug-cc-pVTZ
scf_type DF
freeze_core True
}
energy('sapt2+')
