#psi4
#
memory 32 gb

molecule  {
0 1
  O        3.6417540     0.2907420     0.0000970
  C        3.1452410    -0.8178420    -0.0000810
  N        3.9152070    -1.9745340     0.0001010
  C        3.3889340    -3.2359820     0.0000920
  C        2.0569540    -3.4445590    -0.0000320
  C        1.1525990    -2.3081400    -0.0002060
  N        1.7888040    -1.0675620    -0.0001450
  O       -0.0695520    -2.3892320    -0.0001960
  H        1.6409750    -4.4370170     0.0000140
  H        4.9097050    -1.8221610     0.0002390
  H        1.1852000    -0.2384930    -0.0001480
  H        4.1059790    -4.0435990     0.0002290
--
0 1
  O        0.6871216     0.7916350    -0.0002174
  C       -0.5382694     0.8395100    -0.0001994
  N       -1.1794194     2.0784610    -0.0000334
  C       -2.5362274     2.3408400     0.0001746
  N       -3.2999904     1.1880160     0.0001246
  C       -2.7685464    -0.0755630     0.0000086
  C       -1.4375004    -0.2949400    -0.0000924
  O       -3.0119044     3.4585120     0.0001376
  H       -1.0166314    -1.2883110    -0.0001364
  H       -4.2956134     1.3349190     0.0001766
  H       -0.5796684     2.8924700    -0.0000834
  H       -3.4869584    -0.8816900     0.0000266
units angstrom
no_reorient  #important for SAPT in psi4, default
symmetry c1  #important for SAPT in psi4, default
}

set {
basis aug-cc-pVTZ
scf_type DF
freeze_core True
}
energy('sapt2+')
