%chk=Dimethylamine-Acetate.chk
%nproc=8
%mem=20GB
# opt(ModRedundant) freq mp2/cc-pVTZ nosymm scrf(pcm)

Optimization

-1 1 0 1 -1 1 
N(Fragment=1)       0.0606      -1.1506       0.1704
C(Fragment=1)      -1.0920      -0.2655       0.2743
C(Fragment=1)       1.2879      -0.4608       0.5484
H(Fragment=1)      -0.0684      -1.9317       0.8262
H(Fragment=1)      -1.1991       0.2098       1.2656
H(Fragment=1)      -2.0075      -0.8268       0.0655
H(Fragment=1)      -1.0125       0.5385      -0.4662
H(Fragment=1)       2.0868      -1.1989       0.6384
H(Fragment=1)       1.2111       0.0779       1.5102
H(Fragment=1)       1.5615       0.2741      -0.2174
C(Fragment=2)       0.6330      -5.1520       3.3288
C(Fragment=2)       0.6814      -3.9608       2.3558
O(Fragment=2)       1.8006      -3.6631       1.8491
O(Fragment=2)      -0.4310      -3.3690       2.1653
H(Fragment=2)      -0.1603      -5.8457       3.0351
H(Fragment=2)       1.5872      -5.6822       3.3613
H(Fragment=2)       0.3911      -4.7944       4.3351



