%chk=Isobutane-Benzene.chk
%nproc=8
%mem=20GB
# opt(ModRedundant) freq mp2/cc-pVTZ nosymm

Optimization

0 1 0 1 0 1 
C(Fragment=1)      0.66968     -0.26974     -1.72169
C(Fragment=1)      0.49125      1.17376     -2.17291
C(Fragment=1)      2.12939     -0.54609     -1.38707
C(Fragment=1)     -0.22611     -0.57825     -0.52931
H(Fragment=1)      0.38456     -0.92050     -2.55216
H(Fragment=1)      0.78043      1.85923     -1.37358
H(Fragment=1)      1.10750      1.38706     -3.04563
H(Fragment=1)     -0.54729      1.38145     -2.43227
H(Fragment=1)      2.45932      0.09690     -0.56846
H(Fragment=1)      2.76735     -0.35615     -2.24937
H(Fragment=1)      2.27520     -1.58177     -1.07867
H(Fragment=1)      0.03735      0.05922      0.31688
H(Fragment=1)     -0.11978     -1.61546     -0.21149
H(Fragment=1)     -1.27546     -0.40209     -0.76581
C(Fragment=2)      2.60740     -1.73177     -5.00910
H(Fragment=2)      2.91751     -2.71506     -4.68300
C(Fragment=2)      1.27279     -1.49333     -5.33220
H(Fragment=2)      0.54791     -2.29302     -5.26112
C(Fragment=2)      0.87327     -0.22569     -5.75176
H(Fragment=2)     -0.16220     -0.04039     -6.00249
C(Fragment=2)      1.80852      0.80296     -5.84941
H(Fragment=2)      1.49873      1.78579     -6.17735
C(Fragment=2)      3.14295      0.56464     -5.52571
H(Fragment=2)      3.86860      1.36273     -5.60175
C(Fragment=2)      3.54236     -0.70271     -5.10565
H(Fragment=2)      4.57826     -0.88843     -4.85680



