%chk=Isobutane-Uracil.chk
%nproc=8
%mem=20GB
# opt(ModRedundant) freq mp2/cc-pVTZ nosymm

Optimization

0 1 0 1 0 1 
C(Fragment=1)      0.26547      0.26354     -1.02122
C(Fragment=1)      0.14359      1.78106     -1.09919
C(Fragment=1)      1.13660     -0.26456     -2.15495
C(Fragment=1)      0.82006     -0.16182      0.33237
H(Fragment=1)     -0.73547     -0.15982     -1.13474
H(Fragment=1)      1.12850      2.24079     -0.96436
H(Fragment=1)     -0.27210      2.09270     -2.05831
H(Fragment=1)     -0.49830      2.17320     -0.31069
H(Fragment=1)      2.15005      0.13594     -2.06983
H(Fragment=1)      0.73500      0.02144     -3.12668
H(Fragment=1)      1.21155     -1.35109     -2.12057
H(Fragment=1)      1.82242      0.24714      0.47470
H(Fragment=1)      0.88964     -1.24655      0.40801
H(Fragment=1)      0.19399      0.19565      1.14967
N(Fragment=2)      1.77996      2.54396     -6.22904
H(Fragment=2)      1.21426      2.28556     -7.02602
C(Fragment=2)      3.06281      3.03694     -6.51683
O(Fragment=2)      3.44219      3.13716     -7.67029
C(Fragment=2)      3.82244      3.38636     -5.32877
H(Fragment=2)      4.81992      3.77249     -5.44756
C(Fragment=2)      3.27061      3.22100     -4.10949
H(Fragment=2)      3.79489      3.46487     -3.19733
N(Fragment=2)      2.00207      2.73188     -3.94594
H(Fragment=2)      1.60616      2.60316     -3.02813
C(Fragment=2)      1.18561      2.36116     -4.99862
O(Fragment=2)      0.06146      1.91973     -4.84439



