%chk=Isobutane-Water.chk
%nproc=8
%mem=20GB
# opt(ModRedundant) freq mp2/cc-pVTZ nosymm

Optimization

0 1 0 1 0 1 
C(Fragment=1)     -0.08172     -0.20807     -0.68812
C(Fragment=1)     -0.47190      1.26347     -0.61673
C(Fragment=1)      1.43163     -0.36194     -0.59549
C(Fragment=1)     -0.77665     -1.00132      0.41146
H(Fragment=1)     -0.40714     -0.60114     -1.65492
H(Fragment=1)     -0.16977      1.68568      0.34395
H(Fragment=1)      0.01972      1.83217     -1.40477
H(Fragment=1)     -1.54917      1.39705     -0.71534
H(Fragment=1)      1.78796      0.02067      0.36342
H(Fragment=1)      1.93110      0.19103     -1.38980
H(Fragment=1)      1.72725     -1.40870     -0.66472
H(Fragment=1)     -0.47015     -0.63251      1.39213
H(Fragment=1)     -0.52112     -2.05942      0.35853
H(Fragment=1)     -1.86080     -0.91056      0.34430
O(Fragment=2)      2.34122      2.33453     -2.95897
H(Fragment=2)      2.35168      2.88196     -2.17026
H(Fragment=2)      1.64837      2.72559     -3.49619



