%chk=Isobutane-Isobutane.chk
%nproc=8
%mem=20GB
# opt(ModRedundant) freq mp2/cc-pVTZ nosymm

Optimization

0 1 0 1 0 1 
C(Fragment=1)      0.65374     -0.08407     -0.07889
C(Fragment=1)     -0.04071      1.25900      0.10990
C(Fragment=1)      1.80143     -0.23877      0.91151
C(Fragment=1)     -0.34229     -1.22740      0.07091
H(Fragment=1)      1.06575     -0.11818     -1.09076
H(Fragment=1)     -0.46420      1.32587      1.11368
H(Fragment=1)      0.65599      2.08765     -0.01458
H(Fragment=1)     -0.85289      1.38863     -0.60491
H(Fragment=1)      1.42200     -0.20901      1.93443
H(Fragment=1)      2.53083      0.56347      0.80248
H(Fragment=1)      2.31867     -1.18811      0.77473
H(Fragment=1)     -0.77414     -1.22142      1.07333
H(Fragment=1)      0.13690     -2.19435     -0.08056
H(Fragment=1)     -1.15858     -1.13771     -0.64534
C(Fragment=2)     -5.12589      0.75422     -2.74470
C(Fragment=2)     -5.36814      2.07226     -2.01943
C(Fragment=2)     -3.63216      0.49275     -2.89361
C(Fragment=2)     -5.79905     -0.39608     -2.00605
H(Fragment=2)     -5.56426      0.82533     -3.74347
H(Fragment=2)     -4.93992      2.03343     -1.01619
H(Fragment=2)     -4.90685      2.90660     -2.54726
H(Fragment=2)     -6.43305      2.28106     -1.92016
H(Fragment=2)     -3.16748      0.41713     -1.90910
H(Fragment=2)     -3.13871      1.29970     -3.43496
H(Fragment=2)     -3.44196     -0.43924     -3.42549
H(Fragment=2)     -5.38136     -0.49392     -1.00241
H(Fragment=2)     -5.64851     -1.34289     -2.52412
H(Fragment=2)     -6.87156     -0.23075     -1.90678



